AlAs                                    
   1.00000000000000     
     0.0000000000000000    2.8663980683431833    2.8663980683431833
     2.8663980683431833    0.0000000000000000    2.8663980683431833
     2.8663980683431833    2.8663980683431833    0.0000000000000000
   Al   As
     1     1
Direct
  0.0000000000000000  0.0000000000000000  0.0000000000000000
  0.2500000000000000  0.2500000000000000  0.2500000000000000
 
  0.00000000E+00  0.00000000E+00  0.00000000E+00
  0.00000000E+00  0.00000000E+00  0.00000000E+00
