InN                                     
   1.00000000000000     
     0.0000000000000000    2.5514195483856232    2.5514195483856232
     2.5514195483856232    0.0000000000000000    2.5514195483856232
     2.5514195483856232    2.5514195483856232   -0.0000000000000000
   In   N 
     1     1
Direct
  0.0000000000000000  0.0000000000000000 -0.0000000000000000
  0.2500000000000000  0.2500000000000000  0.2500000000000000
 
  0.00000000E+00  0.00000000E+00  0.00000000E+00
  0.00000000E+00  0.00000000E+00  0.00000000E+00
