InN                    
   1.00000000000000     
    -0.0000000000000000    2.8300797829386406    2.8300797829386406
     2.8300797829386406   -0.0000000000000000    2.8300797829386406
     2.8300797829386406    2.8300797829386406   -0.0000000000000000
   In   N
     1     1
Direct
  0.0000000000000000  0.0000000000000000  0.0000000000000000
  0.2500000000000000  0.2500000000000000  0.2500000000000000
 
  0.00000000E+00  0.00000000E+00  0.00000000E+00
  0.00000000E+00  0.00000000E+00  0.00000000E+00
