SYSTEM = InP

Electronic relaxation:
ENCUT   = 510.00    ! Cutoff energy for plane waves basis set in eV
ALGO    = NORMAL    ! A Davidson blocked iteration scheme
NELMIN  = 6         ! Minimum number of eletronic selfconsistency (SC) steps
NELM    = 100       ! Maximum number of electronic SC steps
NELMDL  = -8        ! Number of NON-selfconsistency steps
EDIFF   = 1.0E-7    ! Global-break condition for the electronic SC-loop (ELM)
AMIX    = 0.2000
BMIX    = 0.0010

Calculation mode:
PREC    = Accurate  ! Calcululation level (Changes FFT-grids)
ISPIN   = 1         ! Non-spin-polarized calculations
ADDGRID = .TRUE.    ! PAW flag
LASPH   = .TRUE.    ! non-spherical elements in the PAW method important for GGA
LREAL   = .FALSE.
LMAXMIX  = 6        ! controls up to which l quantum number the onsite PAW charge densities are passed through the charge density mixer

Ionic relaxation:
NSW     = 100       ! Number of ionic steps
EDIFFG  = -0.001000  ! stop if all forces are smaller than |EDIFFG|
IBRION  = 2         !
ISIF    = 3         ! Force, stress, relax ions, change cell shape, change cell volume
POTIM   = 0.50

Integration over the Brillouin zone (BZ):
ISMEAR  = 0         !
SIGMA   = 0.010

DOS calculation:
LORBIT  = 10        ! Calculate the DOS without providing the Wigner Seitz radius
NEDOS   = 11      ! Number of points to calculate the DOS

OUTCAR size:
NWRITE  = 1         ! Determines how much information will be written in OUTCAR
LWAVE = .FALSE.
LCHARG = .FALSE.

Key for parallel mode calculation:
NCORE = 5
LPLANE = .TRUE.

EOF

~         
