GaSb                                    
   1.00000000000000     
     0.0000000000000000    3.1115842479203999    3.1115842479204003
     3.1115842479204003   -0.0000000000000000    3.1115842479204003
     3.1115842479204003    3.1115842479203999   -0.0000000000000000
   Ga   Sb
     1     1
Direct
 -0.0000000000000000 -0.0000000000000000 -0.0000000000000000
  0.2500000000000000  0.2500000000000000  0.2500000000000000
 
  0.00000000E+00  0.00000000E+00  0.00000000E+00
  0.00000000E+00  0.00000000E+00  0.00000000E+00
