GaAs                                    
   1.00000000000000     
     0.0000000000000000    2.8805505038553956    2.8805505038553956
     2.8805505038553956    0.0000000000000000    2.8805505038553956
     2.8805505038553956    2.8805505038553956    0.0000000000000000
   Ga   As
     1     1
Direct
  0.0000000000000000 -0.0000000000000000  0.0000000000000000
  0.2500000000000000  0.2500000000000000  0.2500000000000000
 
  0.00000000E+00  0.00000000E+00  0.00000000E+00
  0.00000000E+00  0.00000000E+00  0.00000000E+00
