InAs                                    
   1.00000000000000     
     0.0000000000000000    3.1055080227837220    3.1055080227837220
     3.1055080227837220    0.0000000000000000    3.1055080227837220
     3.1055080227837220    3.1055080227837220    0.0000000000000000
   In   As
     1     1
Direct
  0.0000000000000000  0.0000000000000000  0.0000000000000000
  0.2500000000000000  0.2500000000000000  0.2500000000000000
 
  0.00000000E+00  0.00000000E+00  0.00000000E+00
  0.00000000E+00  0.00000000E+00  0.00000000E+00
