AlP                                     
   1.00000000000000     
     0.0000000000000000    2.7527962343194607    2.7527962343194607
     2.7527962343194607    0.0000000000000000    2.7527962343194607
     2.7527962343194607    2.7527962343194607    0.0000000000000000
   Al   P 
     1     1
Direct
  0.0000000000000000  0.0000000000000000  0.0000000000000000
  0.2500000000000000  0.2500000000000000  0.2500000000000000
 
  0.00000000E+00  0.00000000E+00  0.00000000E+00
  0.00000000E+00  0.00000000E+00  0.00000000E+00
